s td 26 3 28
b 1 1 2 15
b 2 2 15 16
b 3 2 3 16
b 4 3 16 17
b 5 3 4 17
b 6 4 17 18
b 7 4 5 18
b 8 5 18 19
b 9 5 6 19
b 10 6 19 20
b 11 6 7 20
b 12 7 20 21
b 13 7 8 21
b 14 8 21 22
b 15 8 9 22
b 16 9 22 23
b 17 9 10 23
b 18 10 23 24
b 19 10 11 24
b 20 11 24 25
b 21 11 12 25
b 22 12 25 26
b 23 12 13 26
b 24 13 26 27
b 25 13 14 27
b 26 14 27 28
1 2
2 3
3 4
4 5
5 6
6 7
7 8
8 9
9 10
10 11
11 12
12 13
13 14
14 15
15 16
16 17
17 18
18 19
19 20
20 21
21 22
22 23
23 24
24 25
25 26
